DIMACS_lns/graph-1000-269.col
p edge 1000 1816
e 1 993
e 1 114
e 1 123
e 1 66
e 1 350
e 1 363
e 1 608
e 2 695
e 2 96
e 2 640
e 2 1000
e 3 153
e 3 256
e 3 794
e 3 945
e 5 270
e 5 227
e 5 86
e 5 140
e 5 792
e 5 605
e 5 93
e 8 146
e 8 162
e 8 910
e 8 114
e 8 531
e 9 853
e 9 480
e 9 26
e 9 43
e 9 220
e 9 748
e 10 177
e 10 189
e 10 732
e 10 477
e 11 271
e 11 205
e 11 25
e 11 417
e 11 355
e 11 96
e 11 887
e 12 365
e 12 116
e 12 559
e 12 33
e 14 802
e 14 102
e 14 714
e 14 563
e 14 631
e 16 365
e 16 689
e 16 70
e 16 53
e 16 691
e 17 978
e 17 408
e 17 871
e 17 702
e 17 475
e 17 510
e 17 608
e 17 334
e 18 400
e 18 812
e 18 317
e 18 259
e 21 510
e 21 534
e 21 57
e 21 442
e 21 313
e 21 461
e 22 412
e 22 421
e 22 192
e 22 361
e 22 527
e 22 276
e 24 593
e 24 285
e 24 329
e 25 843
e 25 941
e 26 274
e 26 447
e 27 234
e 27 203
e 27 672
e 27 641
e 27 705
e 28 113
e 28 317
e 28 805
e 28 367
e 28 192
e 28 683
e 29 231
e 29 331
e 29 69
e 29 181
e 29 258
e 29 867
e 29 998
e 29 584
e 30 668
e 30 181
e 30 893
e 30 394
e 31 800
e 31 144
e 31 42
e 31 648
e 32 432
e 32 850
e 32 264
e 33 567
e 33 887
e 34 947
e 34 426
e 34 315
e 35 791
e 35 645
e 35 147
e 35 722
e 35 965
e 35 412
e 35 312
e 35 911
e 36 444
e 36 106
e 36 560
e 36 68
e 36 367
e 36 639
e 36 735
e 37 418
e 37 718
e 37 498
e 37 782
e 38 291
e 38 362
e 38 527
e 39 800
e 39 714
e 39 275
e 39 804
e 39 181
e 39 965
e 40 972
e 40 285
e 40 276
e 40 180
e 40 291
e 40 811
e 40 578
e 41 786
e 41 400
e 41 526
e 41 832
e 41 360
e 42 550
e 42 75
e 42 657
e 42 936
e 42 982
e 42 678
e 43 176
e 43 141
e 43 295
e 43 953
e 43 530
e 45 883
e 45 739
e 45 960
e 45 607
e 45 707
e 48 666
e 48 371
e 48 537
e 48 984
e 48 896
e 48 392
e 48 489
e 50 867
e 50 825
e 50 593
e 50 141
e 50 901
e 51 566
e 51 326
e 51 933
e 53 495
e 53 129
e 53 830
e 54 371
e 54 774
e 54 185
e 55 337
e 55 322
e 55 116
e 55 620
e 55 553
e 55 738
e 57 810
e 57 994
e 58 93
e 58 874
e 58 641
e 58 630
e 58 337
e 58 484
e 63 94
e 63 411
e 63 767
e 63 473
e 63 779
e 64 477
e 64 443
e 64 324
e 64 870
e 64 883
e 64 328
e 64 95
e 66 789
e 66 121
e 66 940
e 66 984
e 66 919
e 66 932
e 66 556
e 67 482
e 67 652
e 67 689
e 67 582
e 67 255
e 68 650
e 68 308
e 68 471
e 69 901
e 69 181
e 69 629
e 69 428
e 69 798
e 70 405
e 70 538
e 70 270
e 70 776
e 70 715
e 72 88
e 72 283
e 72 661
e 72 748
e 73 370
e 73 799
e 73 558
e 75 835
e 75 380
e 75 390
e 75 785
e 75 813
e 75 409
e 77 861
e 77 485
e 77 739
e 78 978
e 78 419
e 78 292
e 78 119
e 78 957
e 80 347
e 80 747
e 80 919
e 80 717
e 80 779
e 81 713
e 81 977
e 81 630
e 81 343
e 81 596
e 82 431
e 82 971
e 82 475
e 83 98
e 83 446
e 83 550
e 85 997
e 85 364
e 85 588
e 85 113
e 85 891
e 85 222
e 86 472
e 86 652
e 86 280
e 86 715
e 88 747
e 88 236
e 88 817
e 88 703
e 89 324
e 89 711
e 89 868
e 89 783
e 89 758
e 89 938
e 89 296
e 91 227
e 91 587
e 91 844
e 93 514
e 94 836
e 94 824
e 94 825
e 95 872
e 95 989
e 95 273
e 96 571
e 96 823
e 96 991
e 96 845
e 96 666
e 98 762
e 98 623
e 98 548
e 99 743
e 99 283
e 99 406
e 99 790
e 100 513
e 100 982
e 100 228
e 100 949
e 100 310
e 100 840
e 100 330
e 100 116
e 100 318
e 101 734
e 101 341
e 101 698
e 101 955
e 101 557
e 101 581
e 101 242
e 102 162
e 102 811
e 102 350
e 103 910
e 103 214
e 103 526
e 103 757
e 105 231
e 105 330
e 105 341
e 105 896
e 106 161
e 106 427
e 106 769
e 107 256
e 107 869
e 107 228
e 107 621
e 107 414
e 107 307
e 107 122
e 108 563
e 108 932
e 108 972
e 110 977
e 110 254
e 110 115
e 113 136
e 113 831
e 113 672
e 113 731
e 113 1000
e 113 293
e 114 183
e 114 559
e 114 503
e 114 828
e 114 339
e 115 883
e 115 296
e 116 558
e 116 383
e 116 406
e 116 943
e 118 449
e 118 335
e 118 858
e 118 936
e 118 629
e 119 352
e 119 739
e 120 706
e 120 474
e 120 472
e 120 144
e 120 427
e 121 551
e 121 575
e 121 143
e 121 127
e 122 949
e 122 707
e 122 752
e 122 125
e 122 159
e 122 209
e 122 564
e 122 225
e 123 443
e 123 999
e 123 940
e 123 217
e 124 713
e 124 281
e 124 731
e 124 989
e 124 622
e 125 559
e 125 547
e 125 367
e 125 441
e 126 864
e 126 528
e 126 645
e 127 584
e 127 865
e 127 901
e 127 390
e 127 994
e 128 666
e 128 980
e 128 847
e 128 816
e 129 620
e 129 947
e 129 972
e 129 146
e 129 330
e 130 242
e 130 991
e 130 530
e 130 341
e 131 565
e 131 752
e 131 791
e 131 519
e 132 212
e 132 149
e 132 264
e 134 690
e 134 417
e 134 790
e 134 981
e 135 948
e 135 539
e 135 857
e 135 896
e 135 200
e 136 908
e 136 297
e 136 487
e 136 739
e 137 386
e 137 948
e 137 987
e 137 220
e 137 668
e 137 362
e 137 735
e 137 479
e 137 788
e 137 920
e 137 298
e 137 908
e 138 538
e 138 457
e 138 490
e 139 909
e 139 950
e 139 165
e 139 744
e 140 322
e 140 147
e 140 451
e 140 174
e 140 271
e 141 640
e 141 223
e 143 517
e 143 312
e 143 654
e 143 739
e 144 719
e 144 925
e 144 864
e 144 564
e 146 515
e 146 468
e 146 487
e 146 714
e 147 331
e 147 703
e 149 322
e 149 538
e 149 595
e 149 169
e 150 469
e 150 792
e 150 259
e 150 700
e 153 370
e 153 586
e 154 251
e 154 816
e 154 839
e 154 721
e 154 572
e 154 523
e 154 742
e 154 360
e 155 331
e 155 839
e 155 333
e 155 980
e 155 802
e 156 533
e 156 782
e 156 181
e 157 972
e 157 315
e 157 438
e 158 562
e 158 248
e 158 507
e 158 587
e 159 780
e 159 743
e 159 473
e 159 385
e 161 233
e 161 211
e 161 205
e 162 707
e 164 187
e 164 846
e 164 273
e 164 495
e 165 830
e 165 463
e 166 593
e 166 919
e 166 330
e 169 209
e 169 316
e 169 871
e 170 538
e 170 655
e 170 327
e 171 459
e 171 985
e 171 667
e 172 436
e 172 211
e 172 579
e 173 394
e 173 272
e 173 783
e 174 587
e 174 221
e 174 869
e 174 331
e 174 270
e 175 185
e 175 599
e 175 994
e 176 361
e 176 548
e 176 584
e 176 1000
e 177 746
e 177 966
e 177 976
e 177 816
e 177 631
e 178 285
e 178 324
e 178 678
e 178 524
e 180 282
e 180 515
e 180 817
e 180 312
e 181 831
e 181 978
e 182 981
e 182 974
e 182 207
e 182 187
e 183 882
e 183 990
e 185 943
e 185 512
e 185 722
e 185 315
e 186 330
e 186 276
e 186 798
e 187 921
e 187 824
e 187 868
e 187 339
e 187 987
e 187 443
e 188 364
e 188 875
e 188 823
e 189 665
e 189 541
e 189 456
e 189 358
e 192 302
e 192 275
e 194 985
e 194 848
e 194 317
e 194 942
e 196 936
e 196 306
e 196 999
e 198 365
e 198 258
e 198 241
e 200 864
e 200 642
e 200 942
e 201 388
e 201 282
e 201 632
e 202 739
e 202 326
e 202 891
e 202 484
e 203 292
e 203 785
e 204 829
e 204 586
e 204 251
e 204 352
e 205 848
e 205 756
e 206 256
e 206 251
e 206 405
e 206 331
e 206 714
e 206 228
e 207 613
e 207 643
e 207 439
e 207 569
e 208 240
e 208 703
e 208 742
e 208 297
e 208 220
e 208 283
e 209 424
e 209 492
e 209 741
e 209 486
e 209 757
e 209 668
e 210 417
e 210 439
e 210 705
e 211 966
e 211 900
e 212 706
e 212 906
e 212 675
e 213 805
e 213 322
e 213 563
e 214 223
e 214 626
e 214 511
e 214 240
e 215 369
e 215 822
e 215 341
e 215 953
e 217 455
e 217 919
e 219 737
e 219 316
e 219 490
e 220 328
e 220 339
e 220 640
e 221 758
e 221 273
e 221 436
e 221 711
e 222 356
e 222 227
e 222 518
e 222 746
e 222 828
e 223 666
e 223 252
e 223 875
e 223 360
e 223 605
e 225 234
e 225 817
e 225 771
e 225 705
e 225 858
e 227 559
e 227 439
e 228 809
e 228 314
e 229 230
e 229 311
e 229 386
e 230 658
e 230 541
e 230 387
e 230 931
e 231 382
e 231 788
e 231 661
e 231 598
e 233 753
e 233 364
e 234 766
e 234 499
e 234 748
e 234 794
e 234 802
e 236 812
e 236 347
e 236 600
e 239 648
e 239 419
e 239 498
e 239 293
e 240 829
e 240 674
e 241 582
e 241 436
e 242 844
e 242 470
e 242 444
e 244 468
e 244 323
e 244 642
e 244 419
e 245 869
e 245 997
e 245 790
e 245 565
e 245 646
e 245 744
e 246 272
e 246 864
e 246 369
e 246 928
e 246 788
e 246 430
e 248 791
e 248 524
e 248 864
e 249 400
e 249 972
e 249 426
e 249 519
e 251 673
e 251 966
e 251 952
e 252 335
e 252 682
e 252 501
e 254 560
e 254 535
e 254 959
e 255 318
e 255 852
e 256 704
e 256 376
e 256 990
e 256 353
e 256 641
e 257 556
e 257 491
e 257 715
e 258 550
e 258 969
e 259 264
e 260 838
e 260 591
e 260 556
e 260 977
e 261 575
e 261 697
e 261 851
e 263 560
e 263 341
e 263 810
e 263 835
e 264 700
e 264 666
e 264 872
e 264 661
e 264 741
e 265 949
e 265 506
e 265 799
e 265 325
e 268 338
e 268 944
e 268 438
e 268 955
e 270 652
e 270 362
e 270 295
e 271 497
e 271 995
e 272 988
e 272 921
e 272 284
e 273 922
e 273 746
e 274 848
e 274 819
e 274 563
e 274 349
e 275 350
e 275 921
e 275 900
e 275 734
e 275 567
e 275 556
e 276 461
e 276 984
e 276 792
e 279 416
e 279 734
e 279 401
e 279 609
e 280 705
e 280 672
e 281 817
e 281 447
e 281 631
e 281 698
e 282 566
e 283 426
e 283 398
e 283 909
e 284 555
e 284 588
e 284 337
e 285 334
e 285 436
e 285 634
e 286 632
e 286 824
e 286 898
e 286 961
e 287 621
e 287 297
e 287 432
e 291 649
e 291 742
e 292 641
e 292 470
e 292 514
e 292 811
e 292 494
e 293 737
e 293 544
e 293 635
e 293 457
e 295 867
e 295 1000
e 296 799
e 296 485
e 297 780
e 297 409
e 298 640
e 298 367
e 298 667
e 299 551
e 299 315
e 299 303
e 299 633
e 299 411
e 299 857
e 300 780
e 300 533
e 300 964
e 302 919
e 302 798
e 302 405
e 302 690
e 303 598
e 303 726
e 303 944
e 304 456
e 304 789
e 304 535
e 304 572
e 304 813
e 304 314
e 304 392
e 305 737
e 305 353
e 305 605
e 305 398
e 306 931
e 306 695
e 306 735
e 307 838
e 307 458
e 307 580
e 307 808
e 308 652
e 308 725
e 308 713
e 308 819
e 310 788
e 310 838
e 311 934
e 311 965
e 311 807
e 311 624
e 311 746
e 311 567
e 312 404
e 312 780
e 312 441
e 312 825
e 312 665
e 313 632
e 313 451
e 313 972
e 313 783
e 314 538
e 314 750
e 314 832
e 315 599
e 315 559
e 316 780
e 316 769
e 317 531
e 318 487
e 318 519
e 320 523
e 320 562
e 320 947
e 320 767
e 321 665
e 321 555
e 321 328
e 322 571
e 322 790
e 322 824
e 322 530
e 322 503
e 322 325
e 323 470
e 323 900
e 323 333
e 323 520
e 324 581
e 324 628
e 325 472
e 325 692
e 325 923
e 325 926
e 325 593
e 326 432
e 326 908
e 326 343
e 327 972
e 327 495
e 327 500
e 327 496
e 328 865
e 328 943
e 328 589
e 329 521
e 329 829
e 330 728
e 333 937
e 334 484
e 334 990
e 334 352
e 335 392
e 335 937
e 335 345
e 335 791
e 335 375
e 335 713
e 336 985
e 336 501
e 336 663
e 337 533
e 337 879
e 338 794
e 338 600
e 338 492
e 341 987
e 341 778
e 341 539
e 343 482
e 345 646
e 345 867
e 345 900
e 346 858
e 346 957
e 346 415
e 346 623
e 346 756
e 347 506
e 347 976
e 347 648
e 349 823
e 349 496
e 349 502
e 349 830
e 349 937
e 349 982
e 350 922
e 350 746
e 350 352
e 352 620
e 352 957
e 353 808
e 355 737
e 355 944
e 356 492
e 356 685
e 356 582
e 356 774
e 357 639
e 357 491
e 357 446
e 357 735
e 358 565
e 358 639
e 358 458
e 358 864
e 358 597
e 359 575
e 359 631
e 359 647
e 360 959
e 361 499
e 361 998
e 361 832
e 362 539
e 363 559
e 363 766
e 364 378
e 364 957
e 364 537
e 364 742
e 365 906
e 365 626
e 367 384
e 367 744
e 367 973
e 369 478
e 369 544
e 370 871
e 370 938
e 370 950
e 371 676
e 372 550
e 372 940
e 372 520
e 372 817
e 372 993
e 375 443
e 375 799
e 375 897
e 375 922
e 376 643
e 376 786
e 376 825
e 376 415
e 378 926
e 378 907
e 378 382
e 378 654
e 378 648
e 379 597
e 379 682
e 379 732
e 380 735
e 380 718
e 382 541
e 382 405
e 382 583
e 383 404
e 383 528
e 383 384
e 383 597
e 383 402
e 384 697
e 384 712
e 385 977
e 385 931
e 385 628
e 385 449
e 386 952
e 386 528
e 386 681
e 386 480
e 387 518
e 387 611
e 387 985
e 388 469
e 388 844
e 388 537
e 390 672
e 390 887
e 390 611
e 392 810
e 394 707
e 394 977
e 394 752
e 398 511
e 398 550
e 398 672
e 398 489
e 398 604
e 398 567
e 398 793
e 398 704
e 399 501
e 399 698
e 399 717
e 399 552
e 399 536
e 399 451
e 400 993
e 400 633
e 400 940
e 401 428
e 401 632
e 401 402
e 401 980
e 402 587
e 402 470
e 403 881
e 403 553
e 403 486
e 403 951
e 404 948
e 404 533
e 404 562
e 404 521
e 405 745
e 405 535
e 406 552
e 408 959
e 408 474
e 408 758
e 409 999
e 409 731
e 409 971
e 410 604
e 410 940
e 410 737
e 410 847
e 411 928
e 411 798
e 411 741
e 411 622
e 412 500
e 414 922
e 414 907
e 414 649
e 414 447
e 415 541
e 415 974
e 416 957
e 416 920
e 416 961
e 417 571
e 417 494
e 417 762
e 417 667
e 418 897
e 418 798
e 418 846
e 418 484
e 418 471
e 418 910
e 419 835
e 419 754
e 419 472
e 419 653
e 420 840
e 420 760
e 420 745
e 421 862
e 421 478
e 421 836
e 424 937
e 424 690
e 424 683
e 425 745
e 425 621
e 425 789
e 425 844
e 425 473
e 426 480
e 426 800
e 427 874
e 427 868
e 428 853
e 428 562
e 430 586
e 430 898
e 431 541
e 431 593
e 438 646
e 438 666
e 438 698
e 438 848
e 438 609
e 441 499
e 442 825
e 442 681
e 443 591
e 444 717
e 444 695
e 445 666
e 445 562
e 445 683
e 445 698
e 446 948
e 446 960
e 446 871
e 447 828
e 447 631
e 447 640
e 449 714
e 449 701
e 449 943
e 449 922
e 451 615
e 451 926
e 455 650
e 455 973
e 455 719
e 456 527
e 456 683
e 456 639
e 456 790
e 456 699
e 456 623
e 457 957
e 457 764
e 458 831
e 459 725
e 459 908
e 459 699
e 459 906
e 461 943
e 461 767
e 461 695
e 461 896
e 461 633
e 463 565
e 463 803
e 463 726
e 463 766
e 463 482
e 468 690
e 468 681
e 469 630
e 469 745
e 469 541
e 471 563
e 472 691
e 473 551
e 473 597
e 474 698
e 474 605
e 475 961
e 475 778
e 477 596
e 477 788
e 478 598
e 479 747
e 479 685
e 479 922
e 480 666
e 480 903
e 480 906
e 480 785
e 480 864
e 482 953
e 483 978
e 483 961
e 483 492
e 484 511
e 484 485
e 485 709
e 485 489
e 486 621
e 486 551
e 486 593
e 487 533
e 487 906
e 489 598
e 489 621
e 490 996
e 490 599
e 491 823
e 492 850
e 494 595
e 495 535
e 495 522
e 495 869
e 495 928
e 495 783
e 496 761
e 496 799
e 496 556
e 496 760
e 497 580
e 497 932
e 497 891
e 497 628
e 497 959
e 498 718
e 498 996
e 498 713
e 498 786
e 499 774
e 500 976
e 501 624
e 501 808
e 501 643
e 502 771
e 502 719
e 503 535
e 503 803
e 503 732
e 503 676
e 503 528
e 503 949
e 506 604
e 506 611
e 506 774
e 506 584
e 506 714
e 506 623
e 506 561
e 507 763
e 507 569
e 507 581
e 507 790
e 507 652
e 510 657
e 511 893
e 511 942
e 512 612
e 512 523
e 512 633
e 513 776
e 513 587
e 514 731
e 514 717
e 515 603
e 515 873
e 515 786
e 515 645
e 517 719
e 517 922
e 518 810
e 518 674
e 519 581
e 520 693
e 520 695
e 520 716
e 521 933
e 522 840
e 522 655
e 522 652
e 522 704
e 523 779
e 523 588
e 524 811
e 524 647
e 524 675
e 526 681
e 526 766
e 527 536
e 527 969
e 528 722
e 528 581
e 528 738
e 530 726
e 530 701
e 531 741
e 531 981
e 531 726
e 533 926
e 534 800
e 534 750
e 534 753
e 534 780
e 535 634
e 535 860
e 536 738
e 537 613
e 538 879
e 538 571
e 538 573
e 538 829
e 539 761
e 541 884
e 543 970
e 543 712
e 543 756
e 544 658
e 544 839
e 544 682
e 545 728
e 545 805
e 545 632
e 545 693
e 547 845
e 547 587
e 547 597
e 547 871
e 548 612
e 548 766
e 548 910
e 550 948
e 552 893
e 553 599
e 555 879
e 555 624
e 555 639
e 557 813
e 557 973
e 558 870
e 558 997
e 559 959
e 560 593
e 561 691
e 561 901
e 561 881
e 562 626
e 563 965
e 563 941
e 563 823
e 564 631
e 564 831
e 564 995
e 564 800
e 565 830
e 565 591
e 565 969
e 566 768
e 566 805
e 569 764
e 569 912
e 569 805
e 571 744
e 571 994
e 571 853
e 572 793
e 573 981
e 573 960
e 578 835
e 578 907
e 578 661
e 579 903
e 579 774
e 580 583
e 580 689
e 581 771
e 582 767
e 582 737
e 582 948
e 582 657
e 583 623
e 583 780
e 583 590
e 583 808
e 583 692
e 584 943
e 586 753
e 586 900
e 587 990
e 588 744
e 589 603
e 589 732
e 590 870
e 590 997
e 590 754
e 590 845
e 591 596
e 593 752
e 593 761
e 593 742
e 594 653
e 594 823
e 594 964
e 594 934
e 595 607
e 595 809
e 596 897
e 596 865
e 596 650
e 596 830
e 597 744
e 597 906
e 598 715
e 598 800
e 599 705
e 599 891
e 600 952
e 603 952
e 603 640
e 603 936
e 604 822
e 605 871
e 605 643
e 607 744
e 608 869
e 608 832
e 609 961
e 609 978
e 611 888
e 611 767
e 612 665
e 613 728
e 615 873
e 615 629
e 615 778
e 615 912
e 620 739
e 620 970
e 621 800
e 622 795
e 623 793
e 623 918
e 623 823
e 623 964
e 624 879
e 624 766
e 626 769
e 628 835
e 628 783
e 629 808
e 629 945
e 629 748
e 629 805
e 630 741
e 630 752
e 630 654
e 631 634
e 632 819
e 632 802
e 632 716
e 634 790
e 634 655
e 634 825
e 635 906
e 635 689
e 639 706
e 640 705
e 640 686
e 640 699
e 640 941
e 641 937
e 641 652
e 642 766
e 642 997
e 642 838
e 642 919
e 642 897
e 643 756
e 643 716
e 645 858
e 645 868
e 646 763
e 647 918
e 647 731
e 649 836
e 650 994
e 653 911
e 655 709
e 657 812
e 658 687
e 658 908
e 663 937
e 663 755
e 663 743
e 665 674
e 666 739
e 666 763
e 667 843
e 668 910
e 672 887
e 672 907
e 672 970
e 673 737
e 673 845
e 675 771
e 676 860
e 678 762
e 678 981
e 681 974
e 682 911
e 682 746
e 683 714
e 685 990
e 685 791
e 685 780
e 686 923
e 686 921
e 687 766
e 687 725
e 690 973
e 692 798
e 692 812
e 693 969
e 693 715
e 693 852
e 693 830
e 695 882
e 697 955
e 697 891
e 697 805
e 698 755
e 699 864
e 699 980
e 700 937
e 701 799
e 702 944
e 702 906
e 702 803
e 703 761
e 705 776
e 705 852
e 706 851
e 706 809
e 706 883
e 706 950
e 707 804
e 707 735
e 707 940
e 707 978
e 709 843
e 709 964
e 709 982
e 711 923
e 712 715
e 712 901
e 713 955
e 714 995
e 714 942
e 715 918
e 715 874
e 715 941
e 715 926
e 719 925
e 721 766
e 721 845
e 722 840
e 722 755
e 722 997
e 725 803
e 726 860
e 731 858
e 731 852
e 732 988
e 734 776
e 737 804
e 737 851
e 738 879
e 739 884
e 741 768
e 744 909
e 745 776
e 745 950
e 745 879
e 747 936
e 747 850
e 747 964
e 748 776
e 748 755
e 748 941
e 750 875
e 750 970
e 750 761
e 750 760
e 752 948
e 752 998
e 752 941
e 754 938
e 754 764
e 756 790
e 757 882
e 757 995
e 760 972
e 761 920
e 761 881
e 761 971
e 762 872
e 762 906
e 762 860
e 763 874
e 764 912
e 766 938
e 768 921
e 776 987
e 778 943
e 779 933
e 780 906
e 780 813
e 782 948
e 783 952
e 786 804
e 791 828
e 793 831
e 794 807
e 795 897
e 795 879
e 795 891
e 798 822
e 798 888
e 800 916
e 802 852
e 802 869
e 805 942
e 805 808
e 805 950
e 807 928
e 811 920
e 811 961
e 812 832
e 816 916
e 817 840
e 819 836
e 822 906
e 822 934
e 823 921
e 831 996
e 836 969
e 838 897
e 838 875
e 839 953
e 840 952
e 840 864
e 845 928
e 846 858
e 847 942
e 848 861
e 857 940
e 857 949
e 860 891
e 861 978
e 862 875
e 862 922
e 868 988
e 869 965
e 870 896
e 873 964
e 874 903
e 879 920
e 882 959
e 884 926
e 888 936
e 891 952
e 896 982
e 898 950
e 903 994
e 907 911
e 907 970
e 910 949
e 911 923
e 911 964
e 916 941
e 916 959
e 925 945
e 928 989
e 934 950
e 936 953
e 942 951
e 945 955
e 947 948
e 951 978
e 952 991
e 961 973
e 969 971
e 990 1000
