txt_Ins/graph-1000-269.txt
n 1000
e 0 992
e 0 113
e 0 122
e 0 65
e 0 349
e 0 362
e 0 607
e 1 694
e 1 95
e 1 639
e 1 999
e 2 152
e 2 255
e 2 793
e 2 944
e 4 269
e 4 226
e 4 85
e 4 139
e 4 791
e 4 604
e 4 92
e 7 145
e 7 161
e 7 909
e 7 113
e 7 530
e 8 852
e 8 479
e 8 25
e 8 42
e 8 219
e 8 747
e 9 176
e 9 188
e 9 731
e 9 476
e 10 270
e 10 204
e 10 24
e 10 416
e 10 354
e 10 95
e 10 886
e 11 364
e 11 115
e 11 558
e 11 32
e 13 801
e 13 101
e 13 713
e 13 562
e 13 630
e 15 364
e 15 688
e 15 69
e 15 52
e 15 690
e 16 977
e 16 407
e 16 870
e 16 701
e 16 474
e 16 509
e 16 607
e 16 333
e 17 399
e 17 811
e 17 316
e 17 258
e 20 509
e 20 533
e 20 56
e 20 441
e 20 312
e 20 460
e 21 411
e 21 420
e 21 191
e 21 360
e 21 526
e 21 275
e 23 592
e 23 284
e 23 328
e 24 842
e 24 940
e 25 273
e 25 446
e 26 233
e 26 202
e 26 671
e 26 640
e 26 704
e 27 112
e 27 316
e 27 804
e 27 366
e 27 191
e 27 682
e 28 230
e 28 330
e 28 68
e 28 180
e 28 257
e 28 866
e 28 997
e 28 583
e 29 667
e 29 180
e 29 892
e 29 393
e 30 799
e 30 143
e 30 41
e 30 647
e 31 431
e 31 849
e 31 263
e 32 566
e 32 886
e 33 946
e 33 425
e 33 314
e 34 790
e 34 644
e 34 146
e 34 721
e 34 964
e 34 411
e 34 311
e 34 910
e 35 443
e 35 105
e 35 559
e 35 67
e 35 366
e 35 638
e 35 734
e 36 417
e 36 717
e 36 497
e 36 781
e 37 290
e 37 361
e 37 526
e 38 799
e 38 713
e 38 274
e 38 803
e 38 180
e 38 964
e 39 971
e 39 284
e 39 275
e 39 179
e 39 290
e 39 810
e 39 577
e 40 785
e 40 399
e 40 525
e 40 831
e 40 359
e 41 549
e 41 74
e 41 656
e 41 935
e 41 981
e 41 677
e 42 175
e 42 140
e 42 294
e 42 952
e 42 529
e 44 882
e 44 738
e 44 959
e 44 606
e 44 706
e 47 665
e 47 370
e 47 536
e 47 983
e 47 895
e 47 391
e 47 488
e 49 866
e 49 824
e 49 592
e 49 140
e 49 900
e 50 565
e 50 325
e 50 932
e 52 494
e 52 128
e 52 829
e 53 370
e 53 773
e 53 184
e 54 336
e 54 321
e 54 115
e 54 619
e 54 552
e 54 737
e 56 809
e 56 993
e 57 92
e 57 873
e 57 640
e 57 629
e 57 336
e 57 483
e 62 93
e 62 410
e 62 766
e 62 472
e 62 778
e 63 476
e 63 442
e 63 323
e 63 869
e 63 882
e 63 327
e 63 94
e 65 788
e 65 120
e 65 939
e 65 983
e 65 918
e 65 931
e 65 555
e 66 481
e 66 651
e 66 688
e 66 581
e 66 254
e 67 649
e 67 307
e 67 470
e 68 900
e 68 180
e 68 628
e 68 427
e 68 797
e 69 404
e 69 537
e 69 269
e 69 775
e 69 714
e 71 87
e 71 282
e 71 660
e 71 747
e 72 369
e 72 798
e 72 557
e 74 834
e 74 379
e 74 389
e 74 784
e 74 812
e 74 408
e 76 860
e 76 484
e 76 738
e 77 977
e 77 418
e 77 291
e 77 118
e 77 956
e 79 346
e 79 746
e 79 918
e 79 716
e 79 778
e 80 712
e 80 976
e 80 629
e 80 342
e 80 595
e 81 430
e 81 970
e 81 474
e 82 97
e 82 445
e 82 549
e 84 996
e 84 363
e 84 587
e 84 112
e 84 890
e 84 221
e 85 471
e 85 651
e 85 279
e 85 714
e 87 746
e 87 235
e 87 816
e 87 702
e 88 323
e 88 710
e 88 867
e 88 782
e 88 757
e 88 937
e 88 295
e 90 226
e 90 586
e 90 843
e 92 513
e 93 835
e 93 823
e 93 824
e 94 871
e 94 988
e 94 272
e 95 570
e 95 822
e 95 990
e 95 844
e 95 665
e 97 761
e 97 622
e 97 547
e 98 742
e 98 282
e 98 405
e 98 789
e 99 512
e 99 981
e 99 227
e 99 948
e 99 309
e 99 839
e 99 329
e 99 115
e 99 317
e 100 733
e 100 340
e 100 697
e 100 954
e 100 556
e 100 580
e 100 241
e 101 161
e 101 810
e 101 349
e 102 909
e 102 213
e 102 525
e 102 756
e 104 230
e 104 329
e 104 340
e 104 895
e 105 160
e 105 426
e 105 768
e 106 255
e 106 868
e 106 227
e 106 620
e 106 413
e 106 306
e 106 121
e 107 562
e 107 931
e 107 971
e 109 976
e 109 253
e 109 114
e 112 135
e 112 830
e 112 671
e 112 730
e 112 999
e 112 292
e 113 182
e 113 558
e 113 502
e 113 827
e 113 338
e 114 882
e 114 295
e 115 557
e 115 382
e 115 405
e 115 942
e 117 448
e 117 334
e 117 857
e 117 935
e 117 628
e 118 351
e 118 738
e 119 705
e 119 473
e 119 471
e 119 143
e 119 426
e 120 550
e 120 574
e 120 142
e 120 126
e 121 948
e 121 706
e 121 751
e 121 124
e 121 158
e 121 208
e 121 563
e 121 224
e 122 442
e 122 998
e 122 939
e 122 216
e 123 712
e 123 280
e 123 730
e 123 988
e 123 621
e 124 558
e 124 546
e 124 366
e 124 440
e 125 863
e 125 527
e 125 644
e 126 583
e 126 864
e 126 900
e 126 389
e 126 993
e 127 665
e 127 979
e 127 846
e 127 815
e 128 619
e 128 946
e 128 971
e 128 145
e 128 329
e 129 241
e 129 990
e 129 529
e 129 340
e 130 564
e 130 751
e 130 790
e 130 518
e 131 211
e 131 148
e 131 263
e 133 689
e 133 416
e 133 789
e 133 980
e 134 947
e 134 538
e 134 856
e 134 895
e 134 199
e 135 907
e 135 296
e 135 486
e 135 738
e 136 385
e 136 947
e 136 986
e 136 219
e 136 667
e 136 361
e 136 734
e 136 478
e 136 787
e 136 919
e 136 297
e 136 907
e 137 537
e 137 456
e 137 489
e 138 908
e 138 949
e 138 164
e 138 743
e 139 321
e 139 146
e 139 450
e 139 173
e 139 270
e 140 639
e 140 222
e 142 516
e 142 311
e 142 653
e 142 738
e 143 718
e 143 924
e 143 863
e 143 563
e 145 514
e 145 467
e 145 486
e 145 713
e 146 330
e 146 702
e 148 321
e 148 537
e 148 594
e 148 168
e 149 468
e 149 791
e 149 258
e 149 699
e 152 369
e 152 585
e 153 250
e 153 815
e 153 838
e 153 720
e 153 571
e 153 522
e 153 741
e 153 359
e 154 330
e 154 838
e 154 332
e 154 979
e 154 801
e 155 532
e 155 781
e 155 180
e 156 971
e 156 314
e 156 437
e 157 561
e 157 247
e 157 506
e 157 586
e 158 779
e 158 742
e 158 472
e 158 384
e 160 232
e 160 210
e 160 204
e 161 706
e 163 186
e 163 845
e 163 272
e 163 494
e 164 829
e 164 462
e 165 592
e 165 918
e 165 329
e 168 208
e 168 315
e 168 870
e 169 537
e 169 654
e 169 326
e 170 458
e 170 984
e 170 666
e 171 435
e 171 210
e 171 578
e 172 393
e 172 271
e 172 782
e 173 586
e 173 220
e 173 868
e 173 330
e 173 269
e 174 184
e 174 598
e 174 993
e 175 360
e 175 547
e 175 583
e 175 999
e 176 745
e 176 965
e 176 975
e 176 815
e 176 630
e 177 284
e 177 323
e 177 677
e 177 523
e 179 281
e 179 514
e 179 816
e 179 311
e 180 830
e 180 977
e 181 980
e 181 973
e 181 206
e 181 186
e 182 881
e 182 989
e 184 942
e 184 511
e 184 721
e 184 314
e 185 329
e 185 275
e 185 797
e 186 920
e 186 823
e 186 867
e 186 338
e 186 986
e 186 442
e 187 363
e 187 874
e 187 822
e 188 664
e 188 540
e 188 455
e 188 357
e 191 301
e 191 274
e 193 984
e 193 847
e 193 316
e 193 941
e 195 935
e 195 305
e 195 998
e 197 364
e 197 257
e 197 240
e 199 863
e 199 641
e 199 941
e 200 387
e 200 281
e 200 631
e 201 738
e 201 325
e 201 890
e 201 483
e 202 291
e 202 784
e 203 828
e 203 585
e 203 250
e 203 351
e 204 847
e 204 755
e 205 255
e 205 250
e 205 404
e 205 330
e 205 713
e 205 227
e 206 612
e 206 642
e 206 438
e 206 568
e 207 239
e 207 702
e 207 741
e 207 296
e 207 219
e 207 282
e 208 423
e 208 491
e 208 740
e 208 485
e 208 756
e 208 667
e 209 416
e 209 438
e 209 704
e 210 965
e 210 899
e 211 705
e 211 905
e 211 674
e 212 804
e 212 321
e 212 562
e 213 222
e 213 625
e 213 510
e 213 239
e 214 368
e 214 821
e 214 340
e 214 952
e 216 454
e 216 918
e 218 736
e 218 315
e 218 489
e 219 327
e 219 338
e 219 639
e 220 757
e 220 272
e 220 435
e 220 710
e 221 355
e 221 226
e 221 517
e 221 745
e 221 827
e 222 665
e 222 251
e 222 874
e 222 359
e 222 604
e 224 233
e 224 816
e 224 770
e 224 704
e 224 857
e 226 558
e 226 438
e 227 808
e 227 313
e 228 229
e 228 310
e 228 385
e 229 657
e 229 540
e 229 386
e 229 930
e 230 381
e 230 787
e 230 660
e 230 597
e 232 752
e 232 363
e 233 765
e 233 498
e 233 747
e 233 793
e 233 801
e 235 811
e 235 346
e 235 599
e 238 647
e 238 418
e 238 497
e 238 292
e 239 828
e 239 673
e 240 581
e 240 435
e 241 843
e 241 469
e 241 443
e 243 467
e 243 322
e 243 641
e 243 418
e 244 868
e 244 996
e 244 789
e 244 564
e 244 645
e 244 743
e 245 271
e 245 863
e 245 368
e 245 927
e 245 787
e 245 429
e 247 790
e 247 523
e 247 863
e 248 399
e 248 971
e 248 425
e 248 518
e 250 672
e 250 965
e 250 951
e 251 334
e 251 681
e 251 500
e 253 559
e 253 534
e 253 958
e 254 317
e 254 851
e 255 703
e 255 375
e 255 989
e 255 352
e 255 640
e 256 555
e 256 490
e 256 714
e 257 549
e 257 968
e 258 263
e 259 837
e 259 590
e 259 555
e 259 976
e 260 574
e 260 696
e 260 850
e 262 559
e 262 340
e 262 809
e 262 834
e 263 699
e 263 665
e 263 871
e 263 660
e 263 740
e 264 948
e 264 505
e 264 798
e 264 324
e 267 337
e 267 943
e 267 437
e 267 954
e 269 651
e 269 361
e 269 294
e 270 496
e 270 994
e 271 987
e 271 920
e 271 283
e 272 921
e 272 745
e 273 847
e 273 818
e 273 562
e 273 348
e 274 349
e 274 920
e 274 899
e 274 733
e 274 566
e 274 555
e 275 460
e 275 983
e 275 791
e 278 415
e 278 733
e 278 400
e 278 608
e 279 704
e 279 671
e 280 816
e 280 446
e 280 630
e 280 697
e 281 565
e 282 425
e 282 397
e 282 908
e 283 554
e 283 587
e 283 336
e 284 333
e 284 435
e 284 633
e 285 631
e 285 823
e 285 897
e 285 960
e 286 620
e 286 296
e 286 431
e 290 648
e 290 741
e 291 640
e 291 469
e 291 513
e 291 810
e 291 493
e 292 736
e 292 543
e 292 634
e 292 456
e 294 866
e 294 999
e 295 798
e 295 484
e 296 779
e 296 408
e 297 639
e 297 366
e 297 666
e 298 550
e 298 314
e 298 302
e 298 632
e 298 410
e 298 856
e 299 779
e 299 532
e 299 963
e 301 918
e 301 797
e 301 404
e 301 689
e 302 597
e 302 725
e 302 943
e 303 455
e 303 788
e 303 534
e 303 571
e 303 812
e 303 313
e 303 391
e 304 736
e 304 352
e 304 604
e 304 397
e 305 930
e 305 694
e 305 734
e 306 837
e 306 457
e 306 579
e 306 807
e 307 651
e 307 724
e 307 712
e 307 818
e 309 787
e 309 837
e 310 933
e 310 964
e 310 806
e 310 623
e 310 745
e 310 566
e 311 403
e 311 779
e 311 440
e 311 824
e 311 664
e 312 631
e 312 450
e 312 971
e 312 782
e 313 537
e 313 749
e 313 831
e 314 598
e 314 558
e 315 779
e 315 768
e 316 530
e 317 486
e 317 518
e 319 522
e 319 561
e 319 946
e 319 766
e 320 664
e 320 554
e 320 327
e 321 570
e 321 789
e 321 823
e 321 529
e 321 502
e 321 324
e 322 469
e 322 899
e 322 332
e 322 519
e 323 580
e 323 627
e 324 471
e 324 691
e 324 922
e 324 925
e 324 592
e 325 431
e 325 907
e 325 342
e 326 971
e 326 494
e 326 499
e 326 495
e 327 864
e 327 942
e 327 588
e 328 520
e 328 828
e 329 727
e 332 936
e 333 483
e 333 989
e 333 351
e 334 391
e 334 936
e 334 344
e 334 790
e 334 374
e 334 712
e 335 984
e 335 500
e 335 662
e 336 532
e 336 878
e 337 793
e 337 599
e 337 491
e 340 986
e 340 777
e 340 538
e 342 481
e 344 645
e 344 866
e 344 899
e 345 857
e 345 956
e 345 414
e 345 622
e 345 755
e 346 505
e 346 975
e 346 647
e 348 822
e 348 495
e 348 501
e 348 829
e 348 936
e 348 981
e 349 921
e 349 745
e 349 351
e 351 619
e 351 956
e 352 807
e 354 736
e 354 943
e 355 491
e 355 684
e 355 581
e 355 773
e 356 638
e 356 490
e 356 445
e 356 734
e 357 564
e 357 638
e 357 457
e 357 863
e 357 596
e 358 574
e 358 630
e 358 646
e 359 958
e 360 498
e 360 997
e 360 831
e 361 538
e 362 558
e 362 765
e 363 377
e 363 956
e 363 536
e 363 741
e 364 905
e 364 625
e 366 383
e 366 743
e 366 972
e 368 477
e 368 543
e 369 870
e 369 937
e 369 949
e 370 675
e 371 549
e 371 939
e 371 519
e 371 816
e 371 992
e 374 442
e 374 798
e 374 896
e 374 921
e 375 642
e 375 785
e 375 824
e 375 414
e 377 925
e 377 906
e 377 381
e 377 653
e 377 647
e 378 596
e 378 681
e 378 731
e 379 734
e 379 717
e 381 540
e 381 404
e 381 582
e 382 403
e 382 527
e 382 383
e 382 596
e 382 401
e 383 696
e 383 711
e 384 976
e 384 930
e 384 627
e 384 448
e 385 951
e 385 527
e 385 680
e 385 479
e 386 517
e 386 610
e 386 984
e 387 468
e 387 843
e 387 536
e 389 671
e 389 886
e 389 610
e 391 809
e 393 706
e 393 976
e 393 751
e 397 510
e 397 549
e 397 671
e 397 488
e 397 603
e 397 566
e 397 792
e 397 703
e 398 500
e 398 697
e 398 716
e 398 551
e 398 535
e 398 450
e 399 992
e 399 632
e 399 939
e 400 427
e 400 631
e 400 401
e 400 979
e 401 586
e 401 469
e 402 880
e 402 552
e 402 485
e 402 950
e 403 947
e 403 532
e 403 561
e 403 520
e 404 744
e 404 534
e 405 551
e 407 958
e 407 473
e 407 757
e 408 998
e 408 730
e 408 970
e 409 603
e 409 939
e 409 736
e 409 846
e 410 927
e 410 797
e 410 740
e 410 621
e 411 499
e 413 921
e 413 906
e 413 648
e 413 446
e 414 540
e 414 973
e 415 956
e 415 919
e 415 960
e 416 570
e 416 493
e 416 761
e 416 666
e 417 896
e 417 797
e 417 845
e 417 483
e 417 470
e 417 909
e 418 834
e 418 753
e 418 471
e 418 652
e 419 839
e 419 759
e 419 744
e 420 861
e 420 477
e 420 835
e 423 936
e 423 689
e 423 682
e 424 744
e 424 620
e 424 788
e 424 843
e 424 472
e 425 479
e 425 799
e 426 873
e 426 867
e 427 852
e 427 561
e 429 585
e 429 897
e 430 540
e 430 592
e 437 645
e 437 665
e 437 697
e 437 847
e 437 608
e 440 498
e 441 824
e 441 680
e 442 590
e 443 716
e 443 694
e 444 665
e 444 561
e 444 682
e 444 697
e 445 947
e 445 959
e 445 870
e 446 827
e 446 630
e 446 639
e 448 713
e 448 700
e 448 942
e 448 921
e 450 614
e 450 925
e 454 649
e 454 972
e 454 718
e 455 526
e 455 682
e 455 638
e 455 789
e 455 698
e 455 622
e 456 956
e 456 763
e 457 830
e 458 724
e 458 907
e 458 698
e 458 905
e 460 942
e 460 766
e 460 694
e 460 895
e 460 632
e 462 564
e 462 802
e 462 725
e 462 765
e 462 481
e 467 689
e 467 680
e 468 629
e 468 744
e 468 540
e 470 562
e 471 690
e 472 550
e 472 596
e 473 697
e 473 604
e 474 960
e 474 777
e 476 595
e 476 787
e 477 597
e 478 746
e 478 684
e 478 921
e 479 665
e 479 902
e 479 905
e 479 784
e 479 863
e 481 952
e 482 977
e 482 960
e 482 491
e 483 510
e 483 484
e 484 708
e 484 488
e 485 620
e 485 550
e 485 592
e 486 532
e 486 905
e 488 597
e 488 620
e 489 995
e 489 598
e 490 822
e 491 849
e 493 594
e 494 534
e 494 521
e 494 868
e 494 927
e 494 782
e 495 760
e 495 798
e 495 555
e 495 759
e 496 579
e 496 931
e 496 890
e 496 627
e 496 958
e 497 717
e 497 995
e 497 712
e 497 785
e 498 773
e 499 975
e 500 623
e 500 807
e 500 642
e 501 770
e 501 718
e 502 534
e 502 802
e 502 731
e 502 675
e 502 527
e 502 948
e 505 603
e 505 610
e 505 773
e 505 583
e 505 713
e 505 622
e 505 560
e 506 762
e 506 568
e 506 580
e 506 789
e 506 651
e 509 656
e 510 892
e 510 941
e 511 611
e 511 522
e 511 632
e 512 775
e 512 586
e 513 730
e 513 716
e 514 602
e 514 872
e 514 785
e 514 644
e 516 718
e 516 921
e 517 809
e 517 673
e 518 580
e 519 692
e 519 694
e 519 715
e 520 932
e 521 839
e 521 654
e 521 651
e 521 703
e 522 778
e 522 587
e 523 810
e 523 646
e 523 674
e 525 680
e 525 765
e 526 535
e 526 968
e 527 721
e 527 580
e 527 737
e 529 725
e 529 700
e 530 740
e 530 980
e 530 725
e 532 925
e 533 799
e 533 749
e 533 752
e 533 779
e 534 633
e 534 859
e 535 737
e 536 612
e 537 878
e 537 570
e 537 572
e 537 828
e 538 760
e 540 883
e 542 969
e 542 711
e 542 755
e 543 657
e 543 838
e 543 681
e 544 727
e 544 804
e 544 631
e 544 692
e 546 844
e 546 586
e 546 596
e 546 870
e 547 611
e 547 765
e 547 909
e 549 947
e 551 892
e 552 598
e 554 878
e 554 623
e 554 638
e 556 812
e 556 972
e 557 869
e 557 996
e 558 958
e 559 592
e 560 690
e 560 900
e 560 880
e 561 625
e 562 964
e 562 940
e 562 822
e 563 630
e 563 830
e 563 994
e 563 799
e 564 829
e 564 590
e 564 968
e 565 767
e 565 804
e 568 763
e 568 911
e 568 804
e 570 743
e 570 993
e 570 852
e 571 792
e 572 980
e 572 959
e 577 834
e 577 906
e 577 660
e 578 902
e 578 773
e 579 582
e 579 688
e 580 770
e 581 766
e 581 736
e 581 947
e 581 656
e 582 622
e 582 779
e 582 589
e 582 807
e 582 691
e 583 942
e 585 752
e 585 899
e 586 989
e 587 743
e 588 602
e 588 731
e 589 869
e 589 996
e 589 753
e 589 844
e 590 595
e 592 751
e 592 760
e 592 741
e 593 652
e 593 822
e 593 963
e 593 933
e 594 606
e 594 808
e 595 896
e 595 864
e 595 649
e 595 829
e 596 743
e 596 905
e 597 714
e 597 799
e 598 704
e 598 890
e 599 951
e 602 951
e 602 639
e 602 935
e 603 821
e 604 870
e 604 642
e 606 743
e 607 868
e 607 831
e 608 960
e 608 977
e 610 887
e 610 766
e 611 664
e 612 727
e 614 872
e 614 628
e 614 777
e 614 911
e 619 738
e 619 969
e 620 799
e 621 794
e 622 792
e 622 917
e 622 822
e 622 963
e 623 878
e 623 765
e 625 768
e 627 834
e 627 782
e 628 807
e 628 944
e 628 747
e 628 804
e 629 740
e 629 751
e 629 653
e 630 633
e 631 818
e 631 801
e 631 715
e 633 789
e 633 654
e 633 824
e 634 905
e 634 688
e 638 705
e 639 704
e 639 685
e 639 698
e 639 940
e 640 936
e 640 651
e 641 765
e 641 996
e 641 837
e 641 918
e 641 896
e 642 755
e 642 715
e 644 857
e 644 867
e 645 762
e 646 917
e 646 730
e 648 835
e 649 993
e 652 910
e 654 708
e 656 811
e 657 686
e 657 907
e 662 936
e 662 754
e 662 742
e 664 673
e 665 738
e 665 762
e 666 842
e 667 909
e 671 886
e 671 906
e 671 969
e 672 736
e 672 844
e 674 770
e 675 859
e 677 761
e 677 980
e 680 973
e 681 910
e 681 745
e 682 713
e 684 989
e 684 790
e 684 779
e 685 922
e 685 920
e 686 765
e 686 724
e 689 972
e 691 797
e 691 811
e 692 968
e 692 714
e 692 851
e 692 829
e 694 881
e 696 954
e 696 890
e 696 804
e 697 754
e 698 863
e 698 979
e 699 936
e 700 798
e 701 943
e 701 905
e 701 802
e 702 760
e 704 775
e 704 851
e 705 850
e 705 808
e 705 882
e 705 949
e 706 803
e 706 734
e 706 939
e 706 977
e 708 842
e 708 963
e 708 981
e 710 922
e 711 714
e 711 900
e 712 954
e 713 994
e 713 941
e 714 917
e 714 873
e 714 940
e 714 925
e 718 924
e 720 765
e 720 844
e 721 839
e 721 754
e 721 996
e 724 802
e 725 859
e 730 857
e 730 851
e 731 987
e 733 775
e 736 803
e 736 850
e 737 878
e 738 883
e 740 767
e 743 908
e 744 775
e 744 949
e 744 878
e 746 935
e 746 849
e 746 963
e 747 775
e 747 754
e 747 940
e 749 874
e 749 969
e 749 760
e 749 759
e 751 947
e 751 997
e 751 940
e 753 937
e 753 763
e 755 789
e 756 881
e 756 994
e 759 971
e 760 919
e 760 880
e 760 970
e 761 871
e 761 905
e 761 859
e 762 873
e 763 911
e 765 937
e 767 920
e 775 986
e 777 942
e 778 932
e 779 905
e 779 812
e 781 947
e 782 951
e 785 803
e 790 827
e 792 830
e 793 806
e 794 896
e 794 878
e 794 890
e 797 821
e 797 887
e 799 915
e 801 851
e 801 868
e 804 941
e 804 807
e 804 949
e 806 927
e 810 919
e 810 960
e 811 831
e 815 915
e 816 839
e 818 835
e 821 905
e 821 933
e 822 920
e 830 995
e 835 968
e 837 896
e 837 874
e 838 952
e 839 951
e 839 863
e 844 927
e 845 857
e 846 941
e 847 860
e 856 939
e 856 948
e 859 890
e 860 977
e 861 874
e 861 921
e 867 987
e 868 964
e 869 895
e 872 963
e 873 902
e 878 919
e 881 958
e 883 925
e 887 935
e 890 951
e 895 981
e 897 949
e 902 993
e 906 910
e 906 969
e 909 948
e 910 922
e 910 963
e 915 940
e 915 958
e 924 944
e 927 988
e 933 949
e 935 952
e 941 950
e 944 954
e 946 947
e 950 977
e 951 990
e 960 972
e 968 970
e 989 999
